33D32945 STP File, STP Format Version 1.0
Section Comment
Name    "hc6p"
Creator "I. Rosseti, M. Poggi de Aragao, C.C. Ribeiro, E. Uchoa, and R.F.Werneck"
Remark  "Hypercube instance"
End

SECTION Graph
Nodes 64
Edges 192
E 1 33 100
E 1 17 101
E 1 9 108
E 1 5 105
E 1 3 105
E 1 2 102
E 2 34 100
E 2 18 107
E 2 10 107
E 2 6 110
E 2 4 104
E 3 35 105
E 3 19 109
E 3 11 100
E 3 7 100
E 3 4 105
E 4 36 107
E 4 20 100
E 4 12 104
E 4 8 100
E 5 37 104
E 5 21 107
E 5 13 106
E 5 7 110
E 5 6 109
E 6 38 105
E 6 22 101
E 6 14 107
E 6 8 104
E 7 39 107
E 7 23 110
E 7 15 108
E 7 8 102
E 8 40 100
E 8 24 108
E 8 16 103
E 9 41 106
E 9 25 108
E 9 13 110
E 9 11 104
E 9 10 102
E 10 42 110
E 10 26 107
E 10 14 108
E 10 12 107
E 11 43 100
E 11 27 106
E 11 15 109
E 11 12 102
E 12 44 104
E 12 28 108
E 12 16 105
E 13 45 102
E 13 29 103
E 13 15 103
E 13 14 101
E 14 46 105
E 14 30 109
E 14 16 110
E 15 47 100
E 15 31 109
E 15 16 105
E 16 48 105
E 16 32 103
E 17 49 110
E 17 25 105
E 17 21 102
E 17 19 100
E 17 18 110
E 18 50 100
E 18 26 105
E 18 22 104
E 18 20 103
E 19 51 110
E 19 27 105
E 19 23 105
E 19 20 110
E 20 52 100
E 20 28 108
E 20 24 108
E 21 53 109
E 21 29 101
E 21 23 100
E 21 22 107
E 22 54 109
E 22 30 106
E 22 24 108
E 23 55 107
E 23 31 110
E 23 24 109
E 24 56 102
E 24 32 103
E 25 57 103
E 25 29 105
E 25 27 106
E 25 26 109
E 26 58 104
E 26 30 109
E 26 28 102
E 27 59 104
E 27 31 105
E 27 28 105
E 28 60 103
E 28 32 101
E 29 61 101
E 29 31 106
E 29 30 108
E 30 62 100
E 30 32 105
E 31 63 105
E 31 32 110
E 32 64 108
E 33 49 106
E 33 41 109
E 33 37 106
E 33 35 109
E 33 34 101
E 34 50 102
E 34 42 107
E 34 38 101
E 34 36 101
E 35 51 103
E 35 43 100
E 35 39 104
E 35 36 100
E 36 52 107
E 36 44 110
E 36 40 102
E 37 53 101
E 37 45 103
E 37 39 109
E 37 38 107
E 38 54 101
E 38 46 107
E 38 40 104
E 39 55 104
E 39 47 105
E 39 40 101
E 40 56 106
E 40 48 109
E 41 57 106
E 41 45 110
E 41 43 106
E 41 42 101
E 42 58 110
E 42 46 104
E 42 44 101
E 43 59 106
E 43 47 102
E 43 44 105
E 44 60 105
E 44 48 110
E 45 61 101
E 45 47 102
E 45 46 103
E 46 62 106
E 46 48 101
E 47 63 107
E 47 48 106
E 48 64 108
E 49 57 102
E 49 53 105
E 49 51 104
E 49 50 102
E 50 58 100
E 50 54 109
E 50 52 104
E 51 59 101
E 51 55 110
E 51 52 104
E 52 60 101
E 52 56 109
E 53 61 101
E 53 55 101
E 53 54 100
E 54 62 104
E 54 56 102
E 55 63 101
E 55 56 108
E 56 64 105
E 57 61 103
E 57 59 104
E 57 58 108
E 58 62 110
E 58 60 107
E 59 63 102
E 59 60 107
E 60 64 109
E 61 63 102
E 61 62 109
E 62 64 105
E 63 64 105
End

Section Terminals
Terminals 32
T 1
T 4
T 6
T 7
T 10
T 11
T 13
T 16
T 18
T 19
T 21
T 24
T 25
T 28
T 30
T 31
T 34
T 35
T 37
T 40
T 41
T 44
T 46
T 47
T 49
T 52
T 54
T 55
T 58
T 59
T 61
T 64
End

EOF
